c ind 10 100 13 167 169 171 173 18 19 21 0
c ind 23 25 34 37 48 5 50 52 54 6 0
c ind 62 9 0
p cnf 173 651
-1 -2 11 0
-1 2 163 0
-101 -102 98 0
-101 102 112 0
-102 -31 103 0
-102 31 64 0
-103 -39 19 0
-103 39 104 0
-104 -41 105 0
-104 41 64 0
-105 -44 19 0
-105 44 106 0
-106 -56 93 0
-106 56 107 0
-107 -64 60 0
-107 64 108 0
-108 -68 60 0
-108 68 109 0
-109 -73 60 0
-109 73 110 0
-11 -12 14 0
-11 12 26 0
-110 -77 60 0
-110 77 111 0
-111 -80 60 0
-111 80 64 0
-112 -113 98 0
-112 113 124 0
-113 -31 114 0
-113 31 68 0
-114 -39 19 0
-114 39 115 0
-115 -41 116 0
-115 41 68 0
-116 -44 19 0
-116 44 117 0
-117 -56 118 0
-117 56 119 0
-118 -61 13 0
-118 61 19 0
-119 -64 60 0
-119 64 120 0
-12 -13 5 0
-12 -5 13 0
-120 -68 118 0
-120 68 121 0
-121 -73 60 0
-121 73 122 0
-122 -77 60 0
-122 77 123 0
-123 -80 60 0
-123 80 68 0
-124 -125 82 0
-124 125 135 0
-125 -31 126 0
-125 31 73 0
-126 -39 19 0
-126 39 127 0
-127 -41 128 0
-127 41 73 0
-128 -44 19 0
-128 44 129 0
-129 -56 60 0
-129 56 130 0
-130 -64 60 0
-130 64 131 0
-131 -68 93 0
-131 68 132 0
-132 -73 118 0
-132 73 133 0
-133 -77 60 0
-133 77 134 0
-134 -80 60 0
-134 80 73 0
-135 -136 146 0
-135 136 151 0
-136 -31 137 0
-136 31 77 0
-137 -39 19 0
-137 39 138 0
-138 -41 139 0
-138 41 77 0
-139 -44 19 0
-139 44 140 0
-14 15 0
-14 24 0
-140 -56 60 0
-140 56 141 0
-141 -64 118 0
-141 64 142 0
-142 -68 60 0
-142 68 143 0
-143 -73 60 0
-143 73 144 0
-144 -77 118 0
-144 77 145 0
-145 -80 60 0
-145 80 77 0
-146 -99 14 0
-146 99 147 0
-147 148 0
-147 24 0
-148 149 0
-148 22 0
-149 150 0
-149 85 0
-15 16 0
-15 22 0
-150 -13 21 0
-150 -21 13 0
-151 -152 162 0
-151 152 163 0
-152 -31 153 0
-152 31 80 0
-153 -39 19 0
-153 39 154 0
-154 -41 155 0
-154 41 80 0
-155 -44 19 0
-155 44 156 0
-156 -56 60 0
-156 56 157 0
-157 -64 60 0
-157 64 158 0
-158 -68 60 0
-158 68 159 0
-159 -73 60 0
-159 73 160 0
-16 17 0
-16 20 0
-160 -77 93 0
-160 77 161 0
-161 -80 118 0
-161 80 80 0
-162 -99 147 0
-162 99 82 0
-163 164 0
-163 172 0
-164 165 0
-164 170 0
-165 166 0
-165 168 0
-166 -167 18 0
-166 -18 167 0
-168 -169 21 0
-168 -21 169 0
-17 -18 19 0
-17 -19 18 0
-170 -171 23 0
-170 -23 171 0
-172 -173 25 0
-172 -25 173 0
-19 0
-2 3 7 0
-20 -19 21 0
-20 -21 19 0
-22 -19 23 0
-22 -23 19 0
-24 -19 25 0
-24 -25 19 0
-26 -27 29 0
-26 27 163 0
-27 28 0
-27 7 0
-28 -13 9 0
-28 -9 13 0
-29 -30 82 0
-29 30 86 0
-3 -4 0
-30 -31 38 0
-30 31 44 0
-31 32 35 0
-32 -33 0
-33 -34 6 0
-33 -6 34 0
-35 -36 0
-36 -10 37 0
-36 -37 10 0
-38 -39 13 0
-38 39 40 0
-39 -13 6 0
-39 -6 13 0
-4 -5 6 0
-4 -6 5 0
-40 -41 43 0
-40 41 44 0
-41 35 0
-41 42 0
-42 -10 13 0
-42 -13 10 0
-43 -44 19 0
-43 44 55 0
-44 45 0
-44 53 0
-45 46 0
-45 51 0
-46 47 0
-46 49 0
-47 -19 48 0
-47 -48 19 0
-49 -19 50 0
-49 -50 19 0
-51 -19 52 0
-51 -52 19 0
-53 -19 54 0
-53 -54 19 0
-55 -56 60 0
-55 56 63 0
-56 53 0
-56 57 0
-57 51 0
-57 58 0
-58 49 0
-58 59 0
-59 -13 48 0
-59 -48 13 0
-60 -61 19 0
-60 61 19 0
-61 -13 62 0
-61 -62 13 0
-63 -64 60 0
-63 64 67 0
-64 53 0
-64 65 0
-65 58 0
-65 66 0
-66 -13 52 0
-66 -52 13 0
-67 -68 60 0
-67 68 72 0
-68 53 0
-68 69 0
-69 51 0
-69 70 0
-7 -8 0
-70 47 0
-70 71 0
-71 -13 50 0
-71 -50 13 0
-72 -73 60 0
-72 73 76 0
-73 53 0
-73 74 0
-74 51 0
-74 75 0
-75 59 0
-75 71 0
-76 -77 60 0
-76 77 79 0
-77 53 0
-77 78 0
-78 46 0
-78 66 0
-79 -80 60 0
-79 80 44 0
-8 -10 9 0
-8 -9 10 0
-80 53 0
-80 81 0
-81 66 0
-81 70 0
-82 24 0
-82 83 0
-83 22 0
-83 84 0
-84 20 0
-84 85 0
-85 -13 18 0
-85 -18 13 0
-86 -87 98 0
-86 87 101 0
-87 -31 88 0
-87 31 56 0
-88 -39 19 0
-88 39 89 0
-89 -41 90 0
-89 41 56 0
-90 -44 13 0
-90 44 91 0
-91 -56 60 0
-91 56 92 0
-92 -64 93 0
-92 64 94 0
-93 -61 19 0
-93 61 13 0
-94 -68 60 0
-94 68 95 0
-95 -73 93 0
-95 73 96 0
-96 -77 60 0
-96 77 97 0
-97 -80 93 0
-97 80 56 0
-98 -99 14 0
-98 99 82 0
-99 -100 13 0
-99 -13 100 0
1 -11 -163 0
1 -2 -11 0
1 0
1 2 -163 0
101 -102 -98 0
101 -98 -112 0
101 102 -112 0
102 -103 -64 0
102 -31 -103 0
102 31 -64 0
103 -19 -104 0
103 -39 -19 0
103 39 -104 0
104 -105 -64 0
104 -41 -105 0
104 41 -64 0
105 -19 -106 0
105 -44 -19 0
105 44 -106 0
106 -56 -93 0
106 -93 -107 0
106 56 -107 0
107 -60 -108 0
107 -64 -60 0
107 64 -108 0
108 -60 -109 0
108 -68 -60 0
108 68 -109 0
109 -60 -110 0
109 -73 -60 0
109 73 -110 0
11 -12 -14 0
11 -14 -26 0
11 12 -26 0
110 -60 -111 0
110 -77 -60 0
110 77 -111 0
111 -60 -64 0
111 -80 -60 0
111 80 -64 0
112 -113 -98 0
112 -98 -124 0
112 113 -124 0
113 -114 -68 0
113 -31 -114 0
113 31 -68 0
114 -19 -115 0
114 -39 -19 0
114 39 -115 0
115 -116 -68 0
115 -41 -116 0
115 41 -68 0
116 -19 -117 0
116 -44 -19 0
116 44 -117 0
117 -118 -119 0
117 -56 -118 0
117 56 -119 0
118 -13 -19 0
118 -61 -13 0
118 61 -19 0
119 -60 -120 0
119 -64 -60 0
119 64 -120 0
12 -5 -13 0
12 5 13 0
120 -118 -121 0
120 -68 -118 0
120 68 -121 0
121 -60 -122 0
121 -73 -60 0
121 73 -122 0
122 -60 -123 0
122 -77 -60 0
122 77 -123 0
123 -60 -68 0
123 -80 -60 0
123 80 -68 0
124 -125 -82 0
124 -82 -135 0
124 125 -135 0
125 -126 -73 0
125 -31 -126 0
125 31 -73 0
126 -19 -127 0
126 -39 -19 0
126 39 -127 0
127 -128 -73 0
127 -41 -128 0
127 41 -73 0
128 -19 -129 0
128 -44 -19 0
128 44 -129 0
129 -56 -60 0
129 -60 -130 0
129 56 -130 0
13 0
130 -60 -131 0
130 -64 -60 0
130 64 -131 0
131 -68 -93 0
131 -93 -132 0
131 68 -132 0
132 -118 -133 0
132 -73 -118 0
132 73 -133 0
133 -60 -134 0
133 -77 -60 0
133 77 -134 0
134 -60 -73 0
134 -80 -60 0
134 80 -73 0
135 -136 -146 0
135 -146 -151 0
135 136 -151 0
136 -137 -77 0
136 -31 -137 0
136 31 -77 0
137 -19 -138 0
137 -39 -19 0
137 39 -138 0
138 -139 -77 0
138 -41 -139 0
138 41 -77 0
139 -19 -140 0
139 -44 -19 0
139 44 -140 0
14 -15 -24 0
140 -56 -60 0
140 -60 -141 0
140 56 -141 0
141 -118 -142 0
141 -64 -118 0
141 64 -142 0
142 -60 -143 0
142 -68 -60 0
142 68 -143 0
143 -60 -144 0
143 -73 -60 0
143 73 -144 0
144 -118 -145 0
144 -77 -118 0
144 77 -145 0
145 -60 -77 0
145 -80 -60 0
145 80 -77 0
146 -14 -147 0
146 -99 -14 0
146 99 -147 0
147 -148 -24 0
148 -149 -22 0
149 -85 -150 0
15 -16 -22 0
150 -21 -13 0
150 21 13 0
151 -152 -162 0
151 -162 -163 0
151 152 -163 0
152 -153 -80 0
152 -31 -153 0
152 31 -80 0
153 -19 -154 0
153 -39 -19 0
153 39 -154 0
154 -155 -80 0
154 -41 -155 0
154 41 -80 0
155 -19 -156 0
155 -44 -19 0
155 44 -156 0
156 -56 -60 0
156 -60 -157 0
156 56 -157 0
157 -60 -158 0
157 -64 -60 0
157 64 -158 0
158 -60 -159 0
158 -68 -60 0
158 68 -159 0
159 -60 -160 0
159 -73 -60 0
159 73 -160 0
16 -17 -20 0
160 -77 -93 0
160 -93 -161 0
160 77 -161 0
161 -118 -80 0
161 -80 -118 0
161 80 -80 0
162 -147 -82 0
162 -99 -147 0
162 99 -82 0
163 -164 -172 0
164 -165 -170 0
165 -166 -168 0
166 -18 -167 0
166 18 167 0
168 -21 -169 0
168 21 169 0
17 -18 -19 0
17 18 19 0
170 -23 -171 0
170 23 171 0
172 -25 -173 0
172 25 173 0
2 -3 0
2 -7 0
20 -21 -19 0
20 21 19 0
22 -23 -19 0
22 23 19 0
24 -25 -19 0
24 25 19 0
26 -27 -29 0
26 -29 -163 0
26 27 -163 0
27 -7 -28 0
28 -9 -13 0
28 9 13 0
29 -30 -82 0
29 -82 -86 0
29 30 -86 0
3 4 0
30 -31 -38 0
30 -38 -44 0
30 31 -44 0
31 -32 0
31 -35 0
32 33 0
33 -6 -34 0
33 6 34 0
35 36 0
36 -10 -37 0
36 10 37 0
38 -13 -40 0
38 -39 -13 0
38 39 -40 0
39 -6 -13 0
39 6 13 0
4 -5 -6 0
4 5 6 0
40 -41 -43 0
40 -43 -44 0
40 41 -44 0
41 -35 -42 0
42 -10 -13 0
42 10 13 0
43 -19 -55 0
43 -44 -19 0
43 44 -55 0
44 -45 -53 0
45 -46 -51 0
46 -47 -49 0
47 -48 -19 0
47 48 19 0
49 -50 -19 0
49 50 19 0
51 -52 -19 0
51 52 19 0
53 -54 -19 0
53 54 19 0
55 -56 -60 0
55 -60 -63 0
55 56 -63 0
56 -57 -53 0
57 -58 -51 0
58 -59 -49 0
59 -48 -13 0
59 48 13 0
60 -19 -19 0
60 -61 -19 0
60 61 -19 0
61 -62 -13 0
61 62 13 0
63 -60 -67 0
63 -64 -60 0
63 64 -67 0
64 -65 -53 0
65 -58 -66 0
66 -52 -13 0
66 52 13 0
67 -60 -72 0
67 -68 -60 0
67 68 -72 0
68 -69 -53 0
69 -70 -51 0
7 8 0
70 -47 -71 0
71 -50 -13 0
71 50 13 0
72 -60 -76 0
72 -73 -60 0
72 73 -76 0
73 -74 -53 0
74 -75 -51 0
75 -59 -71 0
76 -60 -79 0
76 -77 -60 0
76 77 -79 0
77 -78 -53 0
78 -46 -66 0
79 -60 -44 0
79 -80 -60 0
79 80 -44 0
8 -9 -10 0
8 9 10 0
80 -81 -53 0
81 -70 -66 0
82 -83 -24 0
83 -84 -22 0
84 -85 -20 0
85 -18 -13 0
85 18 13 0
86 -87 -98 0
86 -98 -101 0
86 87 -101 0
87 -31 -88 0
87 -88 -56 0
87 31 -56 0
88 -19 -89 0
88 -39 -19 0
88 39 -89 0
89 -41 -90 0
89 -90 -56 0
89 41 -56 0
90 -13 -91 0
90 -44 -13 0
90 44 -91 0
91 -56 -60 0
91 -60 -92 0
91 56 -92 0
92 -64 -93 0
92 -93 -94 0
92 64 -94 0
93 -19 -13 0
93 -61 -19 0
93 61 -13 0
94 -60 -95 0
94 -68 -60 0
94 68 -95 0
95 -73 -93 0
95 -93 -96 0
95 73 -96 0
96 -60 -97 0
96 -77 -60 0
96 77 -97 0
97 -80 -93 0
97 -93 -56 0
97 80 -56 0
98 -14 -82 0
98 -99 -14 0
98 99 -82 0
99 -100 -13 0
99 100 13 0
